output ["\"output\": {","\"default\": ",showJSON(concat(["pjk = "++format(pjk)++" \ncosto = "++format(costo)++" \n"])),", \"raw\": ",showJSON(concat(["pjk = "++format(pjk)++" \ncosto = "++format(costo)++" \n"])),"}, \"sections\": [\"default\", \"raw\"]"];
int: K = 3;
int: J = 3;
array [1..9] of int: X_INTRODUCED_0_;
array [1..J,1..K] of int: pjk = array2d(1..3,1..3,X_INTRODUCED_0_);
float: costo;
